<?xml version = "1.0" standalone="yes"?>
<!-- This file has been generated by DOcplex version 2.23.222  -->
<CPLEXSolution version="1.0">
 <header
   problemName="CVRP"
   objectiveValue="14553.5"
  />
 <variables>
  <variable name="x_0_2" index="1" value="1.00000"/>
  <variable name="x_0_4" index="3" value="1.00000"/>
  <variable name="x_0_5" index="4" value="1.00000"/>
  <variable name="x_0_7" index="6" value="1.00000"/>
  <variable name="x_0_9" index="8" value="1.00000"/>
  <variable name="x_0_11" index="10" value="1.00000"/>
  <variable name="x_0_13" index="12" value="1.00000"/>
  <variable name="x_0_14" index="13" value="1.00000"/>
  <variable name="x_0_15" index="14" value="1.00000"/>
  <variable name="x_0_18" index="17" value="1.00000"/>
  <variable name="x_0_19" index="18" value="1.00000"/>
  <variable name="x_0_22" index="21" value="1.00000"/>
  <variable name="x_0_23" index="22" value="1.00000"/>
  <variable name="x_0_24" index="23" value="1.00000"/>
  <variable name="x_1_0" index="24" value="1.00000"/>
  <variable name="x_2_16" index="63" value="1.00000"/>
  <variable name="x_3_1" index="73" value="1.00000"/>
  <variable name="x_4_0" index="96" value="1.00000"/>
  <variable name="x_5_6" index="125" value="1.00000"/>
  <variable name="x_6_20" index="163" value="1.00000"/>
  <variable name="x_7_0" index="168" value="1.00000"/>
  <variable name="x_8_10" index="201" value="1.00000"/>
  <variable name="x_9_0" index="216" value="1.00000"/>
  <variable name="x_10_0" index="240" value="1.00000"/>
  <variable name="x_11_0" index="264" value="1.00000"/>
  <variable name="x_12_0" index="288" value="1.00000"/>
  <variable name="x_13_21" index="332" value="1.00000"/>
  <variable name="x_14_0" index="336" value="1.00000"/>
  <variable name="x_15_0" index="360" value="1.00000"/>
  <variable name="x_16_12" index="396" value="1.00000"/>
  <variable name="x_17_8" index="416" value="1.00000"/>
  <variable name="x_18_0" index="432" value="1.00000"/>
  <variable name="x_19_0" index="456" value="1.00000"/>
  <variable name="x_20_0" index="480" value="1.00000"/>
  <variable name="x_21_0" index="504" value="1.00000"/>
  <variable name="x_22_17" index="545" value="1.00000"/>
  <variable name="x_23_0" index="552" value="1.00000"/>
  <variable name="x_24_3" index="579" value="1.00000"/>
  <variable name="u_1" index="600" value="64.00000"/>
  <variable name="u_2" index="601" value="5.00000"/>
  <variable name="u_3" index="602" value="37.00000"/>
  <variable name="u_4" index="603" value="66.00000"/>
  <variable name="u_5" index="604" value="9.00000"/>
  <variable name="u_6" index="605" value="45.00000"/>
  <variable name="u_7" index="606" value="64.00000"/>
  <variable name="u_8" index="607" value="38.00000"/>
  <variable name="u_9" index="608" value="39.00000"/>
  <variable name="u_10" index="609" value="62.00000"/>
  <variable name="u_11" index="610" value="64.00000"/>
  <variable name="u_12" index="611" value="64.00000"/>
  <variable name="u_13" index="612" value="39.00000"/>
  <variable name="u_14" index="613" value="46.00000"/>
  <variable name="u_15" index="614" value="66.00000"/>
  <variable name="u_16" index="615" value="47.00000"/>
  <variable name="u_17" index="616" value="20.00000"/>
  <variable name="u_18" index="617" value="66.00000"/>
  <variable name="u_19" index="618" value="65.00000"/>
  <variable name="u_20" index="619" value="66.00000"/>
  <variable name="u_21" index="620" value="66.00000"/>
  <variable name="u_22" index="621" value="12.00000"/>
  <variable name="u_23" index="622" value="53.00000"/>
  <variable name="u_24" index="623" value="10.00000"/>
 </variables>
</CPLEXSolution>
